========================================================== 
File name: C:\DEGR\assets\definitions\MSRCPSP_Gen\200_40_64_5_A.def
Creation date: Wed May 03 10:46:21 CEST 2023
Website: http://imopse.ii.pwr.edu.pl/ 
Reference: 
Myszkowski P. B., Skowronski M. E., Olech L., Oslizlo K., 
Hybrid Ant Colony Optimization in solving Multi-Skill Resource-Constrained Project Scheduling Problem, 
Soft Computing, DOI: DOI 10.1007/s00500-014-1455-x 
========================================================== 
General characteristics: 
Tasks: 200
Resources: 40
Precedence relations: 64
Number of skill types: 5
========================================================== 
ResourceID 	 Salary 	 Skills 
1	 	 	76.3	 	 Q0: 3 	 
2	 	 	99.9	 	 Q0: 0 	  Q1: 3 	  Q4: 0 	 
3	 	 	96.3	 	 Q0: 2 	  Q3: 3 	  Q2: 1 	 
4	 	 	60.2	 	 Q3: 0 	  Q0: 3 	  Q2: 0 	 
5	 	 	40.5	 	 Q2: 0 	  Q0: 3 	 
6	 	 	55.5	 	 Q0: 3 	 
7	 	 	46.6	 	 Q2: 2 	  Q1: 2 	  Q3: 3 	  Q0: 0 	 
8	 	 	19.7	 	 Q0: 1 	  Q1: 3 	  Q2: 2 	 
9	 	 	16.0	 	 Q4: 0 	  Q1: 2 	  Q0: 0 	  Q2: 1 	 
10	 	 	80.8	 	 Q1: 0 	  Q4: 0 	  Q3: 2 	 
11	 	 	53.7	 	 Q2: 0 	  Q1: 2 	  Q4: 2 	 
12	 	 	28.5	 	 Q2: 0 	  Q0: 2 	  Q4: 1 	 
13	 	 	66.6	 	 Q0: 2 	  Q3: 2 	 
14	 	 	41.1	 	 Q2: 2 	  Q3: 3 	  Q4: 1 	 
15	 	 	84.7	 	 Q1: 1 	  Q0: 2 	 
16	 	 	68.2	 	 Q2: 1 	 
17	 	 	87.5	 	 Q4: 3 	 
18	 	 	95.1	 	 Q3: 1 	  Q4: 1 	 
19	 	 	40.8	 	 Q2: 0 	  Q1: 3 	 
20	 	 	44.9	 	 Q0: 2 	 
21	 	 	37.3	 	 Q2: 3 	  Q0: 3 	  Q3: 2 	  Q4: 0 	 
22	 	 	97.1	 	 Q4: 1 	  Q3: 0 	  Q1: 3 	 
23	 	 	68.1	 	 Q1: 1 	  Q0: 1 	  Q2: 0 	 
24	 	 	80.6	 	 Q4: 3 	  Q3: 0 	 
25	 	 	64.3	 	 Q4: 2 	  Q1: 3 	 
26	 	 	50.8	 	 Q4: 1 	 
27	 	 	26.3	 	 Q1: 1 	  Q4: 1 	  Q0: 2 	 
28	 	 	60.9	 	 Q1: 2 	  Q0: 3 	 
29	 	 	46.6	 	 Q1: 3 	 
30	 	 	44.6	 	 Q3: 0 	  Q1: 3 	  Q0: 2 	  Q4: 2 	 
31	 	 	38.4	 	 Q0: 1 	 
32	 	 	88.7	 	 Q2: 0 	  Q3: 1 	 
33	 	 	88.3	 	 Q4: 0 	  Q0: 2 	  Q1: 1 	 
34	 	 	91.6	 	 Q2: 1 	  Q1: 2 	  Q4: 2 	  Q3: 0 	 
35	 	 	63.8	 	 Q2: 3 	  Q1: 1 	 
36	 	 	59.4	 	 Q0: 3 	  Q3: 2 	 
37	 	 	26.2	 	 Q4: 3 	  Q1: 2 	  Q0: 2 	  Q3: 2 	 
38	 	 	32.8	 	 Q3: 1 	  Q1: 3 	  Q4: 1 	 
39	 	 	12.4	 	 Q2: 2 	 
40	 	 	50.9	 	 Q0: 2 	 
========================================================== 
TaskID 	 Duration 	 Skill 	 Predecessor IDs 
1	10	Q1:	0
2	36	Q3:	3
3	21	Q2:	1
4	25	Q0:	2
5	24	Q3:	2
6	26	Q3:	3
7	40	Q4:	3
8	16	Q0:	0
9	39	Q2:	2
10	9	Q3:	2
11	19	Q2:	0
12	14	Q1:	2
13	26	Q3:	2
14	29	Q0:	2
15	17	Q4:	2
16	14	Q1:	3
17	31	Q1:	3
18	17	Q1:	2
19	24	Q2:	1
20	24	Q4:	3
21	39	Q0:	1
22	39	Q2:	2
23	27	Q0:	2
24	9	Q4:	2
25	20	Q1:	0
26	16	Q0:	1
27	25	Q2:	2
28	17	Q0:	1
29	19	Q2:	1
30	34	Q3:	1
31	18	Q0:	0
32	28	Q2:	1
33	40	Q3:	3
34	27	Q3:	3
35	15	Q3:	1
36	20	Q2:	0
37	26	Q2:	0
38	30	Q1:	1
39	10	Q3:	0	26
40	20	Q3:	1
41	28	Q3:	2
42	22	Q3:	1
43	39	Q3:	0	21
44	24	Q2:	0
45	34	Q1:	2
46	23	Q4:	2
47	30	Q4:	3
48	11	Q1:	3
49	9	Q1:	0
50	32	Q0:	0
51	27	Q3:	1
52	14	Q4:	3	3	5
53	22	Q1:	2
54	25	Q4:	0
55	25	Q1:	2
56	23	Q2:	2
57	40	Q3:	3
58	37	Q1:	0	22
59	20	Q0:	1
60	23	Q0:	1
61	34	Q1:	0
62	23	Q3:	3
63	13	Q3:	1	43
64	17	Q1:	0
65	12	Q0:	1
66	15	Q2:	3
67	13	Q3:	1
68	13	Q4:	2
69	27	Q3:	3
70	40	Q4:	1
71	25	Q0:	1
72	36	Q0:	0
73	17	Q4:	3
74	11	Q2:	0
75	12	Q4:	0
76	9	Q0:	0
77	17	Q0:	1	65	24
78	13	Q3:	1
79	15	Q1:	3	75
80	9	Q1:	2
81	40	Q2:	1
82	35	Q3:	3	34	66
83	11	Q2:	3
84	16	Q1:	0
85	23	Q3:	2
86	31	Q2:	0
87	33	Q4:	1
88	15	Q2:	0
89	36	Q1:	2
90	33	Q1:	3
91	32	Q1:	1
92	13	Q2:	0
93	11	Q3:	1
94	28	Q1:	3
95	36	Q4:	1
96	21	Q4:	1
97	11	Q0:	3
98	29	Q2:	2
99	17	Q0:	3
100	31	Q4:	3
101	30	Q1:	2
102	32	Q2:	0	87	33
103	18	Q3:	2
104	12	Q1:	3	46
105	21	Q1:	1
106	9	Q0:	0	94
107	37	Q4:	3	65
108	22	Q4:	0	97
109	35	Q0:	0
110	18	Q3:	2
111	22	Q2:	0	30
112	10	Q2:	2
113	34	Q1:	0
114	26	Q1:	1
115	33	Q2:	2
116	12	Q2:	0
117	18	Q3:	1	104	114
118	35	Q4:	0
119	18	Q2:	1
120	11	Q2:	3	40
121	17	Q4:	1
122	33	Q4:	0
123	30	Q3:	1
124	31	Q4:	2
125	40	Q1:	3	99
126	17	Q0:	3
127	35	Q0:	2
128	32	Q1:	2	1
129	25	Q2:	2	79
130	37	Q3:	2	94	48
131	11	Q4:	2	20
132	38	Q2:	3	95
133	11	Q4:	2
134	11	Q4:	3	40
135	22	Q0:	2
136	15	Q1:	1
137	21	Q4:	3	125
138	12	Q0:	1
139	16	Q2:	1
140	20	Q4:	2
141	31	Q1:	1	59
142	33	Q4:	3
143	12	Q2:	3
144	34	Q4:	3	89
145	38	Q4:	2	27
146	10	Q1:	1
147	39	Q2:	0	83
148	28	Q2:	1
149	20	Q3:	2	67
150	33	Q0:	0
151	24	Q4:	3	36
152	40	Q3:	3
153	18	Q1:	1	88
154	13	Q3:	3
155	39	Q0:	2
156	23	Q0:	0	39
157	14	Q0:	2	114
158	25	Q4:	1
159	11	Q1:	0
160	25	Q1:	1
161	36	Q1:	0
162	36	Q1:	1
163	32	Q0:	0
164	30	Q0:	1
165	9	Q4:	2
166	31	Q4:	0
167	33	Q2:	0
168	10	Q2:	2
169	17	Q4:	3	18
170	26	Q2:	2
171	36	Q0:	1	7
172	36	Q4:	2
173	26	Q1:	2	59
174	27	Q0:	3	98
175	15	Q1:	0	113
176	38	Q0:	3	168
177	19	Q3:	3
178	34	Q3:	0	65	41
179	28	Q3:	0
180	33	Q0:	0
181	9	Q1:	1	91	136
182	27	Q0:	1	131
183	37	Q2:	1	116
184	39	Q2:	3	130	51	3
185	33	Q1:	0
186	35	Q0:	1
187	20	Q3:	0	2
188	12	Q0:	3
189	19	Q4:	1
190	28	Q2:	0	113
191	9	Q3:	2
192	21	Q2:	2
193	25	Q0:	1	86
194	23	Q1:	0	117	23
195	12	Q0:	1
196	40	Q0:	3	124
197	37	Q0:	1
198	35	Q1:	1	36	144	169
199	36	Q2:	1
200	34	Q4:	3	64
========================================================== 